50	100	100	100
14	15	14
1	30	32
8	14	15
19	5	37
41	21	45
48	48	11
1	19	1
17	30	12
24	25	46
49	18	43
48	42	4
29	17	10
38	35	9
42	32	31
23	36	10
36	34	48
48	2	38
40	16	7
26	24	8
45	13	7
45	38	46
48	42	28
27	38	48
35	31	48
4	16	42
40	23	5
5	35	49
7	28	40
6	42	11
34	14	40
34	17	32
16	38	36
18	4	25
10	22	13
7	2	38
30	20	12
43	35	34
22	15	21
34	24	34
9	44	10
37	15	45
12	41	28
29	1	39
7	13	10
26	36	8
38	18	3
30	7	7
30	26	36
10	30	40
25	31	32
